NAME : rbx711
COMMENT : Bonn VLSI data set with 711 points
COMMENT : Uni Bonn, Research Institute for Discrete Math
COMMENT : Contributed by Andre Rohe
TYPE : TSP
DIMENSION : 711
EDGE_WEIGHT_TYPE : EUC_2D
NODE_COORD_SECTION
1 2 108
2 2 111
3 2 122
4 2 124
5 2 13
6 2 136
7 2 139
8 2 15
9 2 150
10 2 153
11 2 154
12 2 156
13 2 157
14 2 20
15 2 31
16 2 33
17 2 45
18 2 48
19 2 59
20 2 61
21 2 73
22 2 76
23 2 87
24 2 89
25 2 95
26 2 96
27 5 161
28 5 8
29 11 159
30 11 9
31 12 5
32 15 8
33 17 154
34 17 157
35 17 89
36 18 108
37 18 111
38 18 122
39 18 124
40 18 136
41 18 139
42 18 150
43 18 20
44 18 31
45 18 33
46 18 45
47 18 48
48 18 59
49 18 61
50 18 73
51 18 76
52 18 87
53 18 95
54 18 96
55 25 102
56 25 11
57 25 113
58 25 115
59 25 127
60 25 130
61 25 141
62 25 145
63 25 146
64 25 152
65 25 154
66 25 22
67 25 24
68 25 36
69 25 39
70 25 50
71 25 52
72 25 6
73 25 64
74 25 67
75 25 78
76 25 80
77 25 86
78 25 87
79 25 99
80 28 157
81 28 160
82 28 162
83 34 148
84 34 156
85 34 159
86 38 157
87 38 160
88 38 162
89 40 145
90 40 6
91 40 80
92 41 102
93 41 11
94 41 113
95 41 115
96 41 127
97 41 130
98 41 141
99 41 22
100 41 24
101 41 36
102 41 39
103 41 50
104 41 52
105 41 64
106 41 67
107 41 78
108 41 86
109 41 87
110 41 99
111 48 10
112 48 104
113 48 11
114 48 12
115 48 132
116 48 134
117 48 147
118 48 160
119 48 23
120 48 45
121 48 53
122 48 54
123 48 55
124 48 61
125 48 63
126 48 72
127 48 74
128 48 76
129 48 78
130 48 80
131 48 82
132 48 98
133 51 123
134 51 127
135 51 137
136 51 140
137 51 142
138 51 16
139 51 20
140 51 50
141 51 58
142 51 64
143 51 67
144 51 77
145 51 8
146 51 80
147 55 78
148 56 102
149 56 144
150 56 21
151 56 63
152 56 76
153 56 78
154 57 102
155 57 121
156 57 128
157 57 136
158 57 139
159 57 14
160 57 144
161 57 21
162 57 48
163 57 57
164 57 63
165 57 65
166 57 68
167 57 76
168 57 78
169 57 88
170 58 124
171 58 5
172 61 127
173 61 137
174 61 140
175 61 142
176 61 58
177 61 64
178 61 77
179 61 8
180 63 11
181 63 12
182 63 160
183 63 54
184 63 55
185 63 61
186 63 82
187 64 45
188 64 98
189 71 121
190 71 123
191 71 126
192 71 127
193 71 129
194 71 130
195 71 145
196 71 161
197 71 50
198 71 52
199 71 62
200 71 64
201 71 66
202 71 72
203 71 74
204 71 75
205 71 76
206 71 78
207 71 79
208 71 80
209 71 82
210 71 84
211 71 86
212 71 88
213 71 98
214 71 99
215 74 103
216 74 107
217 74 11
218 74 111
219 74 115
220 74 135
221 74 137
222 74 140
223 74 142
224 74 15
225 74 19
226 74 25
227 74 29
228 74 34
229 74 40
230 74 44
231 74 55
232 74 58
233 74 60
234 74 64
235 74 7
236 74 70
237 74 73
238 74 83
239 74 85
240 74 88
241 74 90
242 74 93
243 74 95
244 77 26
245 78 108
246 78 111
247 78 115
248 78 37
249 78 40
250 78 44
251 78 62
252 78 86
253 79 109
254 79 113
255 79 38
256 79 42
257 79 62
258 79 72
259 79 82
260 79 84
261 79 86
262 80 101
263 80 117
264 80 136
265 80 139
266 80 151
267 80 46
268 80 5
269 80 54
270 80 57
271 80 62
272 80 68
273 80 72
274 80 82
275 80 84
276 80 86
277 80 89
278 80 92
279 81 104
280 81 12
281 81 132
282 81 16
283 84 107
284 84 110
285 84 114
286 84 135
287 84 137
288 84 140
289 84 142
290 84 15
291 84 19
292 84 25
293 84 29
294 84 34
295 84 39
296 84 43
297 84 55
298 84 58
299 84 60
300 84 73
301 84 83
302 84 85
303 84 90
304 84 93
305 84 95
306 86 127
307 86 130
308 86 145
309 86 66
310 86 75
311 86 76
312 86 79
313 86 80
314 86 99
315 87 161
316 92 0
317 92 168
318 94 102
319 94 11
320 94 113
321 94 115
322 94 127
323 94 130
324 94 141
325 94 144
326 94 145
327 94 161
328 94 22
329 94 24
330 94 36
331 94 39
332 94 50
333 94 52
334 94 64
335 94 67
336 94 78
337 94 80
338 94 86
339 94 87
340 94 99
341 97 7
342 103 151
343 103 5
344 109 145
345 109 80
346 110 102
347 110 11
348 110 113
349 110 115
350 110 127
351 110 130
352 110 141
353 110 161
354 110 22
355 110 24
356 110 36
357 110 39
358 110 50
359 110 52
360 110 64
361 110 67
362 110 78
363 110 86
364 110 87
365 110 99
366 117 102
367 117 11
368 117 113
369 117 115
370 117 127
371 117 130
372 117 141
373 117 144
374 117 146
375 117 147
376 117 148
377 117 22
378 117 24
379 117 36
380 117 39
381 117 50
382 117 52
383 117 6
384 117 64
385 117 67
386 117 78
387 117 80
388 117 86
389 117 87
390 117 99
391 120 146
392 120 153
393 120 155
394 120 158
395 120 160
396 124 144
397 125 144
398 126 144
399 126 154
400 126 157
401 127 150
402 130 153
403 130 155
404 130 158
405 130 160
406 132 148
407 132 6
408 132 80
409 133 102
410 133 11
411 133 113
412 133 115
413 133 127
414 133 130
415 133 141
416 133 22
417 133 24
418 133 36
419 133 39
420 133 50
421 133 52
422 133 64
423 133 67
424 133 78
425 133 86
426 133 87
427 133 99
428 140 10
429 140 101
430 140 102
431 140 103
432 140 105
433 140 107
434 140 11
435 140 116
436 140 117
437 140 12
438 140 120
439 140 126
440 140 127
441 140 138
442 140 140
443 140 141
444 140 143
445 140 144
446 140 146
447 140 160
448 140 162
449 140 18
450 140 20
451 140 26
452 140 28
453 140 33
454 140 63
455 140 68
456 140 69
457 140 70
458 140 73
459 140 75
460 140 93
461 140 95
462 140 99
463 143 107
464 143 110
465 143 114
466 143 124
467 143 130
468 143 133
469 143 135
470 143 140
471 143 143
472 143 146
473 143 15
474 143 150
475 143 154
476 143 21
477 143 53
478 143 57
479 143 61
480 143 64
481 143 67
482 143 7
483 143 75
484 143 79
485 143 83
486 143 87
487 147 101
488 147 105
489 147 138
490 147 141
491 147 144
492 147 147
493 147 150
494 147 154
495 147 54
496 147 57
497 147 61
498 147 73
499 147 80
500 147 83
501 147 87
502 148 105
503 148 138
504 148 141
505 148 144
506 148 148
507 148 152
508 148 20
509 148 31
510 148 55
511 148 59
512 148 63
513 148 73
514 148 81
515 148 85
516 149 100
517 149 105
518 149 108
519 149 122
520 149 129
521 149 132
522 149 138
523 149 14
524 149 141
525 149 144
526 149 156
527 149 20
528 149 22
529 149 31
530 149 5
531 149 63
532 149 65
533 149 73
534 149 89
535 150 50
536 150 76
537 153 103
538 153 130
539 153 133
540 153 135
541 153 149
542 153 15
543 153 153
544 153 21
545 153 53
546 153 56
547 153 60
548 153 64
549 153 79
550 153 82
551 153 86
552 155 11
553 155 116
554 155 12
555 155 120
556 155 127
557 155 18
558 155 69
559 155 70
560 163 100
561 163 102
562 163 104
563 163 105
564 163 107
565 163 108
566 163 110
567 163 115
568 163 116
569 163 122
570 163 124
571 163 126
572 163 127
573 163 137
574 163 138
575 163 141
576 163 142
577 163 145
578 163 161
579 163 17
580 163 19
581 163 20
582 163 21
583 163 24
584 163 52
585 163 61
586 163 63
587 163 73
588 163 75
589 163 77
590 163 78
591 163 81
592 163 97
593 166 102
594 166 111
595 166 113
596 166 13
597 166 131
598 166 135
599 166 19
600 166 28
601 166 31
602 166 35
603 166 39
604 166 43
605 166 49
606 166 53
607 166 56
608 166 66
609 166 69
610 166 71
611 166 74
612 166 79
613 166 8
614 169 5
615 169 75
616 170 100
617 170 17
618 170 75
619 171 100
620 171 110
621 171 17
622 171 52
623 171 73
624 171 76
625 171 78
626 172 100
627 172 110
628 172 112
629 172 118
630 172 129
631 172 151
632 172 17
633 172 26
634 172 29
635 172 52
636 172 54
637 172 57
638 172 65
639 172 68
640 172 73
641 172 75
642 172 78
643 172 87
644 173 132
645 173 36
646 173 40
647 176 111
648 176 113
649 176 13
650 176 135
651 176 39
652 176 43
653 176 49
654 176 53
655 176 66
656 176 69
657 176 71
658 176 74
659 176 77
660 176 79
661 176 8
662 178 104
663 178 108
664 178 116
665 178 127
666 178 138
667 178 141
668 178 145
669 178 21
670 178 24
671 178 81
672 179 161
673 179 97
674 183 168
675 185 102
676 185 103
677 185 108
678 185 109
679 185 114
680 185 115
681 185 120
682 185 121
683 185 126
684 185 127
685 185 13
686 185 132
687 185 133
688 185 138
689 185 139
690 185 145
691 185 151
692 185 157
693 185 163
694 185 19
695 185 25
696 185 31
697 185 37
698 185 43
699 185 49
700 185 55
701 185 61
702 185 67
703 185 7
704 185 73
705 185 79
706 185 84
707 185 85
708 185 90
709 185 91
710 185 96
711 185 97
EOF
